64
150
105	1
104	1
103	1
102	4
101	1
100	3
99	2
98	3
96	2
93	1
92	1
91	1
89	1
88	1
87	2
84	1
83	1
82	1
81	2
80	1
79	1
75	2
73	1
72	2
69	2
68	1
65	1
64	3
63	2
60	2
58	1
56	3
55	2
54	1
53	2
51	1
50	1
49	2
48	1
47	1
46	1
44	2
43	1
41	1
40	1
39	1
38	1
37	2
36	1
35	1
33	1
32	1
30	1
29	1
26	1
25	1
24	3
23	4
22	3
20	1
19	1
17	1
16	5
15	1
